NAME: pr107
DIMENSION: 17
EDGE_WEIGHT_TYPE: EUC_2D
NODE_COORD_SECTION
1 8375 4700
2 8775 4700
3 8375 4900
4 8175 4900
5 8775 4900
6 8575 4900
7 8775 5400
8 8375 5450
9 8775 5600
10 8575 5600
11 8375 5650
12 8175 5650
13 8375 6200
14 8775 6200
15 8375 6400
16 8175 6400
17 8775 6400
ACCEPTED_PROBABILITIES
0.0
0.95
0.95
0.95
0.75
0.95
0.75
0.75
0.75
0.75
0.75
0.75
0.5
0.5
0.5
0.5
0.5
OUTSOURCING_COSTS
0.0
25.0
12.5
17.69
27.94
17.69
50.38
46.88
61.56
57.63
59.38
60.69
93.75
97.0
106.25
107.0
109.13
